
Gurobi 12.0.2 (linux64, C++) logging started Thu Jun 19 08:00:19 2025

Set parameter LogFile to value "log/instances/scenario3/not_correlated_sc3/300/kpfs_8.txt.log"

Gurobi 12.0.2 (linux64, C++) logging started Thu Jun 19 08:01:42 2025

Set parameter LogFile to value "log/instances/scenario3/not_correlated_sc3/300/kpfs_8.txt.log"

Gurobi 12.0.2 (linux64, C++) logging started Thu Jun 19 08:02:53 2025

Set parameter LogFile to value "log/instances/scenario3/not_correlated_sc3/300/kpfs_8.txt.log"

Gurobi 12.0.2 (linux64, C++) logging started Thu Jun 19 08:03:57 2025

Set parameter LogFile to value "log/instances/scenario3/not_correlated_sc3/300/kpfs_8.txt.log"

Gurobi 12.0.2 (linux64, C++) logging started Thu Jun 19 12:38:15 2025

Set parameter WLSAccessID
Set parameter WLSSecret
Set parameter LicenseID to value 2679381
Set parameter LogFile to value "log/instances/scenario3/not_correlated_sc3/300/kpfs_8.txt.log"
Academic license 2679381 - for non-commercial use only - registered to be___@poli.ufrj.br
Set parameter TimeLimit to value 1800
Set parameter Threads to value 1
Gurobi Optimizer version 12.0.2 build v12.0.2rc0 (linux64 - "Ubuntu 24.04.1 LTS")

CPU model: 13th Gen Intel(R) Core(TM) i7-1355U, instruction set [SSE2|AVX|AVX2]
Thread count: 6 physical cores, 12 logical processors, using up to 1 threads

Non-default parameters:
TimeLimit  1800
Threads  1

Academic license 2679381 - for non-commercial use only - registered to be___@poli.ufrj.br
Optimize a model with 1502 rows, 1800 columns and 9422 nonzeros
Model fingerprint: 0x4768e31a
Variable types: 0 continuous, 1800 integer (300 binary)
Coefficient statistics:
  Matrix range     [1e+00, 3e+01]
  Objective range  [1e+00, 3e+01]
  Bounds range     [1e+00, 5e+00]
  RHS range        [1e+00, 5e+02]
Found heuristic solution: objective 521.0000000
Presolve removed 1 rows and 244 columns
Presolve time: 0.04s
Presolved: 1501 rows, 1556 columns, 8932 nonzeros
Variable types: 0 continuous, 1556 integer (488 binary)

Root relaxation: objective 1.102199e+03, 525 iterations, 0.04 seconds (0.02 work units)

    Nodes    |    Current Node    |     Objective Bounds      |     Work
 Expl Unexpl |  Obj  Depth IntInf | Incumbent    BestBd   Gap | It/Node Time

     0     0 1102.19894    0  154  521.00000 1102.19894   112%     -    0s
H    0     0                     726.0000000 1102.19894  51.8%     -    0s
H    0     0                     753.0000000 1102.19894  46.4%     -    0s
H    0     0                     844.0000000 1102.19894  30.6%     -    0s
H    0     0                     862.0000000 1102.19894  27.9%     -    0s
H    0     0                     863.0000000 1102.19894  27.7%     -    0s
H    0     0                     897.0000000 1102.19894  22.9%     -    0s
H    0     0                     920.0000000 1102.19894  19.8%     -    0s
H    0     0                     963.0000000 1102.19894  14.5%     -    0s
     0     0 1099.01546    0  165  963.00000 1099.01546  14.1%     -    0s
     0     0 1098.96287    0  166  963.00000 1098.96287  14.1%     -    0s
     0     0 1095.21068    0  162  963.00000 1095.21068  13.7%     -    0s
     0     0 1094.91540    0  160  963.00000 1094.91540  13.7%     -    0s
     0     0 1094.91540    0  160  963.00000 1094.91540  13.7%     -    0s
     0     0 1089.22061    0  170  963.00000 1089.22061  13.1%     -    0s
     0     0 1089.00488    0  164  963.00000 1089.00488  13.1%     -    0s
     0     0 1089.00301    0  166  963.00000 1089.00301  13.1%     -    0s
     0     0 1086.98901    0  172  963.00000 1086.98901  12.9%     -    0s
     0     0 1086.87299    0  173  963.00000 1086.87299  12.9%     -    0s
     0     0 1086.84988    0  173  963.00000 1086.84988  12.9%     -    0s
     0     0 1086.84767    0  174  963.00000 1086.84767  12.9%     -    0s
     0     0 1085.66793    0  180  963.00000 1085.66793  12.7%     -    0s
     0     0 1085.61885    0  175  963.00000 1085.61885  12.7%     -    1s
     0     0 1085.61164    0  177  963.00000 1085.61164  12.7%     -    1s
     0     0 1085.55909    0  178  963.00000 1085.55909  12.7%     -    1s
H    0     0                     970.0000000 1085.49495  11.9%     -    1s
     0     0 1085.49495    0  178  970.00000 1085.49495  11.9%     -    1s
     0     0 1085.28125    0  180  970.00000 1085.28125  11.9%     -    1s
     0     0 1085.18991    0  176  970.00000 1085.18991  11.9%     -    1s
     0     0 1085.09399    0  176  970.00000 1085.09399  11.9%     -    1s
H    0     0                     973.0000000 1084.92231  11.5%     -    1s
H    0     0                     974.0000000 1084.92231  11.4%     -    1s
     0     0 1084.92231    0  175  974.00000 1084.92231  11.4%     -    1s
     0     0 1084.92231    0  175  974.00000 1084.92231  11.4%     -    1s
     0     0 1084.92231    0  177  974.00000 1084.92231  11.4%     -    1s
     0     0 1084.76671    0  178  974.00000 1084.76671  11.4%     -    1s
     0     0 1084.68733    0  179  974.00000 1084.68733  11.4%     -    1s
     0     0 1084.67912    0  178  974.00000 1084.67912  11.4%     -    1s
     0     0 1084.67094    0  179  974.00000 1084.67094  11.4%     -    1s
     0     0 1084.63583    0  178  974.00000 1084.63583  11.4%     -    1s
     0     0 1084.63583    0  179  974.00000 1084.63583  11.4%     -    1s
     0     0 1084.62906    0  179  974.00000 1084.62906  11.4%     -    1s
H    0     0                     978.0000000 1084.62906  10.9%     -    1s
H    0     0                     988.0000000 1084.62906  9.78%     -    1s
     0     2 1084.62803    0  179  988.00000 1084.62803  9.78%     -    1s
H   26    26                     997.0000000 1077.35761  8.06%   130    2s
H   26    26                    1001.0000000 1077.35761  7.63%   130    2s
H   52    52                    1013.0000000 1077.35761  6.35%  82.4    2s
H   52    52                    1015.0000000 1077.35761  6.14%  82.4    2s
H   78    76                    1020.0000000 1077.35761  5.62%  68.4    2s
H   78    74                    1021.0000000 1077.35761  5.52%  68.4    2s
H  251   193                    1023.0000000 1073.97425  4.98%  45.1    4s
H  336    98                    1045.0000000 1070.56189  2.45%  41.4    4s
H  340    77                    1050.0000000 1070.56189  1.96%  41.5    4s
   383    64 1055.91667    4  142 1050.00000 1064.27309  1.36%  42.7    5s

Cutting planes:
  MIR: 10
  Zero half: 39
  RLT: 4

Explored 516 nodes (23799 simplex iterations) in 6.10 seconds (2.42 work units)
Thread count was 1 (of 12 available processors)

Solution count 10: 1050 1045 1023 ... 988

Optimal solution found (tolerance 1.00e-04)
Best objective 1.050000000000e+03, best bound 1.050000000000e+03, gap 0.0000%
